50 8
74 936
574 611
759 788
894 809
226 116
125 305
545 724
261 402
574 224
129 831
392 213
452 715
644 466
660 790
291 176
935 703
652 753
490 594
833 473
870 704
50 894
678 447
722 810
799 435
913 761
543 633
756 481
657 829
945 544
845 612
801 663
210 297
835 851
735 872
679 675
550 475
513 380
83 887
801 803
349 901
171 445
720 853
582 497
880 888
647 372
115 168
751 799
796 427
628 424
759 518
